COLUMNS

passenger_count
pickup_ID
dropoff_ID
request_time_sec
pickup_district
dropoff_district
LDuals
IDuals
vehicle_ID
pick_position
drop_position

REQUESTS_INFO
1      1128      1005      30421     291       50        105       105       21        1         3         
2      694       79        30447     189       98        102       102       41        1         2         
1      1058      1135      30437     84        50        145       145       105       1         2         
2      349       628       30443     127       189       107       107       480       1         2         
2      864       479       30425     290       52        137       137       612       1         2         
1      209       193       30450     266       266       0         0         0         0         0         
1      289       497       30450     127       999       0         0         0         0         0         
1      462       527       30452     189       52        0         0         0         0         0         
1      1149      1048      30452     291       291       0         0         0         0         0         
1      572       526       30453     131       52        0         0         0         0         0         
1      939       1530      30454     291       296       0         0         0         0         0         
1      277       557       30454     87        189       0         0         0         0         0         
2      740       194       30454     50        207       0         0         0         0         0         
1      277       793       30456     87        290       0         0         0         0         0         
1      460       78        30456     189       9         0         0         0         0         0         
2      408       31        30457     299       9         0         0         0         0         0         
1      1128      782       30457     291       291       0         0         0         0         0         
1      745       858       30457     290       290       0         0         0         0         0         
4      527       639       30457     52        131       0         0         0         0         0         
1      632       621       30458     189       280       0         0         0         0         0         
1      677       1106      30458     189       291       0         0         0         0         0         
1      726       948       30458     290       290       0         0         0         0         0         
1      736       671       30459     131       280       0         0         0         0         0         
3      983       1218      30460     291       84        0         0         0         0         0         
1      712       1416      30460     131       129       0         0         0         0         0         
3      983       1218      30460     291       84        0         0         0         0         0         
1      770       556       30461     290       199       0         0         0         0         0         
1      248       189       30461     266       286       0         0         0         0         0         
1      1107      254       30461     291       87        0         0         0         0         0         
3      782       829       30463     291       50        0         0         0         0         0         
3      782       829       30463     291       50        0         0         0         0         0         
1      1087      1207      30463     291       192       0         0         0         0         0         
1      533       466       30463     199       199       0         0         0         0         0         
1      731       32        30463     131       98        0         0         0         0         0         
1      580       551       30464     189       189       0         0         0         0         0         
1      20        19        30464     98        98        0         0         0         0         0         
1      314       527       30466     119       52        0         0         0         0         0         
3      195       509       30466     207       199       0         0         0         0         0         
1      236       605       30466     87        189       0         0         0         0         0         
1      980       685       30467     291       999       0         0         0         0         0         
1      980       1194      30468     291       129       0         0         0         0         0         
1      835       947       30468     290       290       0         0         0         0         0         
1      722       906       30468     290       290       0         0         0         0         0         
1      847       172       30468     291       286       0         0         0         0         0         
1      596       685       30468     131       999       0         0         0         0         0         
2      837       969       30468     290       290       0         0         0         0         0         
1      818       551       30470     290       189       0         0         0         0         0         
1      1225      1704      30470     192       142       0         0         0         0         0         
1      307       199       30470     127       178       0         0         0         0         0         
1      892       960       30471     291       291       0         0         0         0         0         
1      663       527       30471     131       52        0         0         0         0         0         
1      760       722       30471     291       290       0         0         0         0         0         
1      627       534       30472     189       199       0         0         0         0         0         
1      410       1074      30472     52        84        0         0         0         0         0         
1      847       851       30473     291       291       0         0         0         0         0         
1      479       722       30474     52        290       0         0         0         0         0         
2      813       1106      30476     290       291       0         0         0         0         0         
2      632       772       30476     189       290       0         0         0         0         0         
1      767       827       30477     290       291       0         0         0         0         0         
1      907       813       30477     290       290       0         0         0         0         0         
1      883       805       30477     290       291       0         0         0         0         0         
1      1086      548       30477     291       52        0         0         0         0         0         
1      758       1066      30478     131       291       0         0         0         0         0         
2      780       1023      30479     291       291       0         0         0         0         0         
1      768       652       30479     290       189       0         0         0         0         0         
